peakDumbCharging = 18500; 
Machine = anon_enum(16); 
machineSpeed = [3700,3700,3700,3700,3700,3700,3700,3700,3700,3700,3700,3700,3700,3700,3700,3700]; 
machineLoad = [3700,3700,3700,3700,3700,3700,3700,3700,3700,3700,3700,3700,3700,3700,3700,3700]; 
Car = anon_enum(27); 
demandCar = [5920,2520,13600,19800,13560,2480,6480,22720,3040,15960,6560,18160,680,11480,14040,1040,31560,1440,6360,12200,7760,1000,24200,4000,44400,30320,17240]; 
arrivalCar = [72,70,66,66,65,65,63,63,62,60,59,58,58,56,54,51,49,44,39,38,36,35,33,32,29,29,24]; 
departureCar = [74,72,71,74,71,67,69,70,64,67,63,69,60,61,59,52,62,46,42,47,39,37,46,35,45,66,43]; 
